NAME : block_18.340758.tour
COMMENT : Length = 340758
COMMENT : Found by LKH-3 [Keld Helsgaun] Mon Feb  2 23:12:43 2026
TYPE : TOUR
DIMENSION : 98
TOUR_SECTION
69
78
86
93
94
87
79
70
60
49
37
24
11
12
25
38
50
61
71
80
88
81
72
62
51
39
26
13
2
98
1
5
15
14
27
28
40
52
41
29
16
6
3
4
7
17
30
42
53
63
73
64
54
43
31
18
8
19
32
44
55
65
74
82
89
95
90
83
75
66
56
45
33
20
21
34
46
57
67
76
84
91
96
97
92
85
77
68
58
47
35
22
9
10
23
36
48
59
-1
EOF
